p tw 40 208
e 0 1
e 0 3
e 0 5
e 0 6
e 0 8
e 0 13
e 0 15
e 0 16
e 0 17
e 0 18
e 0 22
e 0 23
e 0 25
e 0 35
e 0 36
e 0 39
e 1 6
e 1 9
e 1 11
e 1 17
e 1 18
e 1 21
e 1 25
e 1 26
e 1 27
e 1 29
e 1 34
e 1 36
e 1 39
e 2 5
e 2 8
e 2 10
e 2 15
e 2 16
e 2 17
e 2 18
e 2 25
e 2 26
e 2 27
e 2 33
e 2 35
e 2 37
e 3 6
e 3 9
e 3 13
e 3 14
e 3 17
e 3 24
e 3 25
e 3 27
e 3 31
e 3 34
e 3 39
e 4 5
e 4 9
e 4 15
e 4 16
e 4 26
e 4 28
e 4 33
e 5 12
e 5 13
e 5 15
e 5 17
e 5 19
e 5 20
e 5 23
e 5 30
e 6 10
e 6 13
e 6 18
e 6 23
e 6 33
e 6 37
e 7 8
e 7 9
e 7 13
e 7 14
e 7 15
e 7 16
e 7 18
e 7 19
e 7 32
e 7 35
e 7 37
e 8 24
e 8 30
e 8 31
e 8 36
e 8 38
e 9 14
e 9 16
e 9 17
e 9 19
e 9 24
e 9 26
e 9 34
e 9 35
e 10 13
e 10 14
e 10 18
e 10 19
e 10 29
e 10 31
e 11 19
e 11 20
e 11 22
e 11 25
e 11 27
e 11 29
e 11 30
e 11 31
e 11 33
e 12 13
e 12 19
e 12 21
e 12 29
e 12 30
e 12 37
e 12 39
e 13 14
e 13 15
e 13 18
e 13 21
e 13 25
e 13 28
e 13 37
e 14 23
e 14 26
e 14 27
e 14 28
e 14 31
e 14 34
e 14 37
e 14 38
e 15 20
e 15 30
e 15 39
e 16 18
e 16 20
e 16 22
e 16 27
e 17 24
e 17 25
e 17 35
e 17 36
e 18 22
e 18 29
e 18 33
e 18 34
e 18 35
e 18 36
e 18 37
e 19 23
e 19 25
e 19 32
e 19 33
e 19 36
e 19 38
e 19 39
e 20 30
e 20 31
e 20 32
e 20 34
e 20 38
e 21 22
e 21 32
e 21 36
e 21 38
e 21 39
e 22 23
e 22 27
e 22 28
e 22 37
e 23 29
e 23 34
e 23 35
e 23 37
e 23 38
e 24 30
e 24 35
e 24 38
e 24 39
e 25 27
e 25 28
e 25 34
e 26 28
e 26 29
e 26 34
e 26 35
e 26 38
e 27 30
e 27 31
e 27 38
e 28 39
e 29 30
e 29 32
e 29 33
e 30 34
e 30 36
e 31 32
e 31 35
e 31 37
e 32 37
e 35 37
e 36 38
e 37 38
e 38 39
